NAME : ft70.tour
COMMENT : Optimum tour for ft70.tsp (Length = 38673)
TYPE : TOUR
DIMENSION : 140
TOUR_SECTION  
96
23
93
28
98
59
129
62
132
63
133
46
116
47
117
31
101
32
102
34
104
48
118
20
90
19
89
51
121
52
122
56
126
53
123
55
125
29
99
16
86
17
87
18
88
21
91
54
124
57
127
25
95
22
92
30
100
33
103
35
105
44
114
49
119
65
135
67
137
64
134
68
138
69
139
66
136
70
140
38
108
40
110
39
109
41
111
42
112
43
113
37
107
36
106
50
120
45
115
58
128
60
130
61
131
2
72
1
71
7
77
27
97
24
94
3
73
5
75
6
76
4
74
8
78
9
79
12
82
10
80
11
81
15
85
13
83
14
84
26
-1
EOF
